(set-logic QF_S)
(declare-fun var0 () String)
(declare-fun var1 () Int)
(declare-fun var2 () Int)
(declare-fun var3 () String)
(declare-fun var4 () Int)
(declare-fun var5 () Int)
(declare-fun var6 () String)
(declare-fun var7 () String)
(assert (str.contains (str.substr var0 var1 var2) (str.substr var3 var4 var5)))
(assert (str.suffixof (str.at var6 var2) (str.at (str.replace var7 var7 var0) (str.indexof "Yc5y" var7 90))))
(assert (not (str.suffixof (str.replace var6 var0 var3) (str.replace var7 var3 var6))))
(assert (str.suffixof (str.at (str.at var3 var4) (str.indexof var6 var3 var5)) (str.replace (str.at var6 var1) (str.replace "!~TF`""#" var0 var3) (str.substr var0 var2 var5))))
(check-sat)